p td 600 1684 
375 5
375 12
375 14
375 17
375 21
375 30
375 37
375 38
375 48
375 57
375 58
375 66
375 70
375 74
375 77
375 90
375 93
375 94
375 102
375 106
375 123
375 134
375 136
375 137
375 143
375 158
375 166
375 171
375 173
375 174
375 175
375 182
375 188
375 189
375 201
375 202
375 210
375 213
375 216
375 222
375 227
375 228
375 232
375 239
375 241
375 245
375 246
375 248
375 249
375 253
375 258
375 263
375 264
375 266
375 269
375 273
375 274
375 292
375 300
375 313
375 315
375 321
375 325
375 328
375 338
375 340
375 353
375 358
375 362
375 365
375 378
375 379
375 384
375 386
375 387
375 389
375 397
375 401
375 404
375 406
375 410
375 412
375 417
375 423
375 431
375 434
375 438
375 441
375 444
375 446
375 448
375 450
375 455
375 457
375 458
375 462
375 464
375 468
375 471
375 473
375 479
375 483
375 493
375 499
375 500
375 516
375 522
375 535
375 537
375 540
375 551
375 561
375 572
375 578
375 582
375 589
375 591
375 594
375 595
375 597
281 7
281 14
281 17
281 20
281 27
281 45
281 48
281 50
281 54
281 61
281 66
281 76
281 81
281 86
281 88
281 101
281 105
281 107
281 112
281 115
281 119
281 133
281 134
281 145
281 148
281 150
281 151
281 152
281 154
281 165
281 169
281 171
281 178
281 181
281 182
281 196
281 197
281 202
281 203
281 208
281 211
281 212
281 217
281 220
281 222
281 226
281 229
281 240
281 244
281 252
281 264
281 265
281 266
281 268
281 271
281 272
281 275
281 285
281 289
281 294
281 300
281 301
281 303
281 304
281 305
281 308
281 318
281 324
281 326
281 330
281 348
281 355
281 362
281 366
281 367
281 374
281 392
281 393
281 396
281 405
281 408
281 411
281 415
281 418
281 420
281 421
281 423
281 440
281 445
281 451
281 456
281 457
281 465
281 468
281 473
281 479
281 483
281 490
281 503
281 508
281 516
281 521
281 522
281 539
281 552
281 553
281 556
281 558
281 559
281 561
281 563
281 567
281 569
281 572
281 574
281 575
281 582
281 585
281 588
281 595
281 596
482 1
482 14
482 21
482 35
482 38
482 39
482 42
482 44
482 46
482 48
482 50
482 58
482 66
482 74
482 78
482 83
482 84
482 85
482 91
482 92
482 100
482 103
482 104
482 111
482 112
482 114
482 119
482 122
482 123
482 127
482 132
482 141
482 143
482 145
482 146
482 147
482 149
482 157
482 164
482 172
482 173
482 178
482 179
482 181
482 191
482 193
482 198
482 207
482 208
482 218
482 225
482 226
482 228
482 232
482 233
482 242
482 246
482 247
482 255
482 262
482 278
482 279
482 281
482 282
482 286
482 292
482 295
482 296
482 298
482 301
482 302
482 306
482 316
482 324
482 329
482 332
482 352
482 372
482 393
482 401
482 416
482 419
482 430
482 438
482 442
482 443
482 445
482 450
482 454
482 456
482 475
482 476
482 480
482 484
482 491
482 492
482 494
482 497
482 504
482 509
482 511
482 512
482 513
482 519
482 525
482 529
482 531
482 536
482 538
482 540
482 542
482 545
482 546
482 553
482 556
482 558
482 581
482 582
178 6
178 22
178 23
178 29
178 33
178 42
178 50
178 53
178 61
178 71
178 85
178 87
178 92
178 93
178 94
178 100
178 111
178 116
178 117
178 119
178 127
178 138
178 139
178 140
178 158
178 175
178 176
178 177
178 184
178 191
178 192
178 201
178 204
178 211
178 216
178 217
178 225
178 226
178 234
178 247
178 255
178 257
178 260
178 262
178 264
178 269
178 272
178 277
178 283
178 287
178 288
178 290
178 293
178 294
178 300
178 301
178 305
178 306
178 309
178 329
178 334
178 336
178 357
178 358
178 368
178 373
178 374
178 375
178 385
178 394
178 395
178 396
178 400
178 405
178 407
178 424
178 425
178 436
178 437
178 442
178 451
178 454
178 470
178 471
178 472
178 478
178 483
178 487
178 488
178 489
178 491
178 499
178 503
178 504
178 507
178 522
178 523
178 526
178 529
178 533
178 535
178 537
178 542
178 549
178 554
178 564
178 566
178 570
178 577
178 583
178 588
178 593
175 2
175 4
175 6
175 10
175 14
175 19
175 26
175 27
175 28
175 32
175 34
175 42
175 43
175 51
175 71
175 72
175 75
175 78
175 80
175 82
175 88
175 91
175 92
175 103
175 113
175 114
175 126
175 130
175 135
175 153
175 154
175 168
175 173
175 179
175 182
175 186
175 188
175 206
175 208
175 209
175 215
175 219
175 221
175 227
175 229
175 235
175 237
175 244
175 247
175 248
175 251
175 255
175 256
175 257
175 263
175 265
175 268
175 269
175 270
175 271
175 273
175 274
175 275
175 278
175 285
175 286
175 298
175 303
175 313
175 314
175 315
175 317
175 324
175 335
175 340
175 348
175 354
175 362
175 365
175 366
175 374
175 377
175 382
175 392
175 396
175 400
175 405
175 407
175 408
175 414
175 423
175 424
175 426
175 430
175 462
175 463
175 469
175 479
175 480
175 484
175 485
175 487
175 493
175 499
175 508
175 509
175 510
175 516
175 518
175 522
175 524
175 531
175 539
175 551
175 552
175 553
175 554
175 555
175 559
175 568
175 575
175 579
175 582
175 583
175 585
175 597
204 1
204 4
204 11
204 17
204 24
204 36
204 39
204 41
204 55
204 57
204 59
204 60
204 62
204 73
204 80
204 83
204 98
204 99
204 105
204 107
204 111
204 118
204 123
204 134
204 140
204 151
204 152
204 156
204 174
204 184
204 187
204 188
204 191
204 192
204 197
204 200
204 204
204 206
204 207
204 208
204 209
204 215
204 216
204 218
204 221
204 229
204 234
204 269
204 271
204 276
204 282
204 285
204 291
204 292
204 301
204 302
204 305
204 317
204 320
204 321
204 327
204 331
204 332
204 338
204 343
204 354
204 357
204 359
204 364
204 370
204 372
204 373
204 374
204 385
204 387
204 397
204 405
204 412
204 419
204 427
204 433
204 437
204 439
204 441
204 442
204 445
204 462
204 467
204 468
204 471
204 485
204 489
204 490
204 508
204 516
204 519
204 521
204 526
204 534
204 545
204 552
204 556
204 558
204 565
204 569
204 570
204 577
204 579
204 583
204 590
204 592
388 6
388 16
388 26
388 27
388 29
388 36
388 40
388 41
388 46
388 47
388 50
388 54
388 55
388 57
388 70
388 71
388 72
388 73
388 84
388 85
388 87
388 102
388 103
388 107
388 110
388 114
388 121
388 136
388 137
388 140
388 152
388 156
388 157
388 159
388 167
388 181
388 185
388 189
388 191
388 202
388 203
388 204
388 207
388 222
388 223
388 230
388 233
388 238
388 255
388 257
388 268
388 269
388 273
388 277
388 289
388 290
388 292
388 294
388 296
388 300
388 301
388 302
388 310
388 322
388 332
388 334
388 342
388 347
388 353
388 366
388 369
388 371
388 373
388 379
388 383
388 384
388 385
388 391
388 394
388 395
388 397
388 401
388 407
388 409
388 411
388 415
388 419
388 437
388 440
388 450
388 455
388 457
388 472
388 483
388 484
388 502
388 503
388 505
388 515
388 519
388 523
388 527
388 531
388 535
388 539
388 540
388 542
388 545
388 546
388 552
388 553
388 557
388 560
388 562
388 565
388 566
388 567
388 570
388 583
388 584
388 590
388 592
339 2
339 8
339 10
339 13
339 19
339 21
339 34
339 41
339 45
339 47
339 48
339 50
339 51
339 63
339 75
339 77
339 84
339 91
339 112
339 115
339 116
339 119
339 146
339 147
339 148
339 154
339 161
339 180
339 181
339 188
339 189
339 193
339 195
339 205
339 206
339 211
339 212
339 219
339 223
339 228
339 229
339 247
339 252
339 253
339 255
339 260
339 265
339 289
339 299
339 300
339 303
339 304
339 309
339 310
339 311
339 339
339 340
339 343
339 350
339 351
339 355
339 360
339 361
339 374
339 378
339 394
339 399
339 400
339 402
339 411
339 413
339 415
339 424
339 431
339 435
339 437
339 441
339 444
339 454
339 455
339 463
339 467
339 471
339 472
339 481
339 499
339 501
339 507
339 510
339 513
339 516
339 520
339 529
339 530
339 537
339 539
339 542
339 545
339 552
339 553
339 554
339 572
339 574
339 580
116 2
116 4
116 8
116 11
116 12
116 20
116 23
116 24
116 30
116 31
116 36
116 39
116 41
116 53
116 59
116 65
116 76
116 77
116 80
116 84
116 86
116 88
116 104
116 106
116 113
116 114
116 124
116 136
116 137
116 142
116 143
116 155
116 158
116 169
116 173
116 177
116 178
116 186
116 194
116 201
116 212
116 214
116 218
116 222
116 232
116 237
116 245
116 249
116 261
116 269
116 281
116 282
116 293
116 295
116 299
116 318
116 348
116 349
116 351
116 352
116 355
116 357
116 358
116 360
116 367
116 383
116 387
116 391
116 398
116 402
116 406
116 409
116 423
116 435
116 436
116 438
116 442
116 451
116 453
116 455
116 464
116 465
116 466
116 468
116 473
116 476
116 477
116 478
116 481
116 484
116 497
116 503
116 509
116 510
116 520
116 545
116 546
116 550
116 553
116 561
116 564
116 568
116 575
116 583
116 585
116 587
116 592
228 4
228 5
228 6
228 8
228 19
228 24
228 26
228 27
228 35
228 39
228 43
228 44
228 49
228 53
228 58
228 60
228 64
228 66
228 75
228 76
228 78
228 79
228 84
228 88
228 95
228 108
228 119
228 120
228 123
228 128
228 130
228 131
228 136
228 137
228 139
228 140
228 143
228 148
228 158
228 169
228 170
228 171
228 178
228 184
228 192
228 196
228 200
228 203
228 206
228 209
228 216
228 217
228 218
228 231
228 236
228 237
228 238
228 239
228 242
228 243
228 248
228 249
228 250
228 251
228 259
228 261
228 264
228 270
228 273
228 277
228 283
228 287
228 289
228 291
228 295
228 299
228 300
228 301
228 302
228 303
228 304
228 307
228 310
228 313
228 316
228 319
228 322
228 325
228 332
228 339
228 348
228 350
228 365
228 372
228 381
228 386
228 387
228 389
228 392
228 394
228 397
228 398
228 403
228 411
228 417
228 418
228 421
228 422
228 429
228 432
228 435
228 445
228 457
228 461
228 471
228 473
228 479
228 482
228 486
228 487
228 488
228 493
228 496
228 499
228 500
228 514
228 524
228 528
228 530
228 531
228 533
228 549
228 552
228 565
228 568
228 582
228 584
228 585
228 586
228 588
228 590
157 5
157 18
157 19
157 22
157 23
157 25
157 33
157 35
157 36
157 39
157 42
157 44
157 46
157 47
157 70
157 72
157 76
157 106
157 112
157 115
157 116
157 117
157 121
157 123
157 127
157 128
157 131
157 132
157 133
157 140
157 141
157 154
157 160
157 172
157 174
157 179
157 184
157 187
157 197
157 198
157 200
157 204
157 207
157 208
157 222
157 228
157 230
157 246
157 247
157 254
157 255
157 257
157 259
157 261
157 269
157 276
157 287
157 290
157 293
157 302
157 312
157 313
157 314
157 315
157 326
157 353
157 354
157 358
157 367
157 368
157 371
157 372
157 379
157 385
157 391
157 398
157 404
157 405
157 407
157 417
157 423
157 430
157 431
157 440
157 441
157 442
157 449
157 467
157 468
157 479
157 487
157 495
157 501
157 515
157 516
157 526
157 548
157 551
157 552
157 557
157 561
157 562
157 576
157 578
157 583
157 586
157 590
157 591
157 594
157 597
157 600
297 3
297 13
297 17
297 21
297 22
297 36
297 42
297 52
297 56
297 57
297 61
297 63
297 76
297 81
297 85
297 86
297 92
297 99
297 101
297 105
297 107
297 113
297 116
297 124
297 128
297 140
297 141
297 146
297 154
297 155
297 161
297 166
297 174
297 179
297 181
297 184
297 194
297 203
297 214
297 215
297 230
297 232
297 243
297 248
297 266
297 269
297 273
297 274
297 278
297 283
297 286
297 287
297 289
297 291
297 300
297 303
297 310
297 313
297 317
297 319
297 335
297 340
297 347
297 348
297 350
297 351
297 353
297 354
297 355
297 360
297 362
297 374
297 383
297 384
297 386
297 387
297 399
297 401
297 415
297 418
297 428
297 429
297 431
297 437
297 442
297 444
297 446
297 453
297 455
297 461
297 468
297 474
297 480
297 496
297 501
297 504
297 506
297 517
297 520
297 521
297 523
297 525
297 526
297 551
297 554
297 556
297 561
297 563
297 565
297 566
297 567
297 575
297 587
297 593
297 596
297 598
196 2
196 3
196 6
196 7
196 9
196 11
196 14
196 16
196 21
196 32
196 42
196 49
196 51
196 58
196 60
196 62
196 76
196 81
196 84
196 85
196 90
196 96
196 108
196 109
196 115
196 118
196 122
196 123
196 126
196 128
196 134
196 141
196 143
196 145
196 147
196 148
196 161
196 164
196 167
196 170
196 175
196 176
196 179
196 183
196 184
196 185
196 186
196 189
196 194
196 196
196 201
196 205
196 214
196 217
196 222
196 225
196 230
196 242
196 245
196 247
196 256
196 257
196 258
196 264
196 265
196 276
196 280
196 286
196 287
196 288
196 293
196 294
196 299
196 302
196 304
196 306
196 312
196 316
196 321
196 323
196 326
196 330
196 332
196 337
196 346
196 352
196 357
196 359
196 362
196 365
196 366
196 373
196 377
196 382
196 384
196 385
196 395
196 404
196 410
196 412
196 414
196 424
196 427
196 431
196 434
196 436
196 437
196 444
196 445
196 450
196 451
196 452
196 457
196 458
196 464
196 469
196 472
196 473
196 477
196 483
196 487
196 488
196 491
196 494
196 495
196 497
196 505
196 508
196 509
196 513
196 519
196 524
196 526
196 537
196 538
196 547
196 550
196 552
196 553
196 555
196 558
196 568
196 569
196 571
196 574
196 577
196 584
196 591
196 592
196 593
411 10
411 12
411 20
411 23
411 28
411 29
411 33
411 39
411 40
411 45
411 51
411 57
411 58
411 60
411 61
411 63
411 73
411 84
411 91
411 92
411 95
411 96
411 101
411 108
411 109
411 113
411 120
411 121
411 124
411 133
411 137
411 143
411 146
411 150
411 154
411 162
411 163
411 165
411 166
411 171
411 179
411 189
411 196
411 202
411 217
411 221
411 225
411 229
411 232
411 238
411 240
411 267
411 270
411 271
411 273
411 275
411 279
411 283
411 286
411 287
411 291
411 298
411 299
411 302
411 303
411 307
411 315
411 317
411 323
411 326
411 335
411 340
411 344
411 355
411 358
411 365
411 369
411 374
411 382
411 383
411 388
411 389
411 390
411 391
411 393
411 401
411 404
411 407
411 409
411 411
411 414
411 421
411 423
411 424
411 428
411 429
411 433
411 443
411 444
411 451
411 452
411 457
411 458
411 465
411 466
411 473
411 476
411 481
411 486
411 502
411 504
411 515
411 518
411 521
411 534
411 538
411 541
411 547
411 562
411 564
411 579
411 585
411 589
411 590
411 591
